=====UNKNOWN=====
% time elapsed: 1800.21 s
%%%mzn-stat: initTime=0.045343057
%%%mzn-stat: nodes=2124264
%%%mzn-stat: restarts=431
%%%mzn-stat: peakDepth=704
%%%mzn-stat: solveTime=1798.54496694
%%%mzn-stat: variables=3286
%%%mzn-stat: propagators=2849
%%%mzn-stat: failures=1617382
%%%mzn-stat: propagations=119719903
%%%mzn-stat: nogoods=1617382
%%%mzn-stat: AverageConflictSize=49.37955226409098
%%%mzn-stat: NumUnitNogoodsLearned=132
%%%mzn-stat: AverageLearnedNogoodLength=77.42363275960781
%%%mzn-stat: AverageBacktrackAmount=0
%%%mzn-stat: AverageLbd=29.505502719827476
%%%mzn-stat-end
